(declare-fun var91327 () (_ BitVec 64))
(declare-fun ARGNAME_other_NAMEEND_DIM () (_ BitVec 64))
(declare-fun ARGNAME_input_NAMEEND_DIM () (_ BitVec 64))
(declare-fun var267109 () (_ BitVec 64))
(declare-fun var267122 () (_ BitVec 64))
(declare-fun temp70_1 () (_ BitVec 64))
(declare-fun var267124 () (_ BitVec 64))
(declare-fun var267151 () (_ BitVec 64))
(declare-fun var396901 () (_ BitVec 64))
(declare-fun temp70_2 () (_ BitVec 64))
(declare-fun var1664457 () (_ BitVec 64))
(declare-fun var1664485 () (_ BitVec 64))
(declare-fun var1664454 () (_ BitVec 64))
(declare-fun var1598900 () (_ BitVec 64))
(declare-fun var1598897 () (_ BitVec 64))
(declare-fun var91342 () (_ BitVec 64))
(declare-fun temp70_3 () (_ BitVec 64))
(declare-fun var1983463 () (_ BitVec 64))
(declare-fun var2049021 () (_ BitVec 64))
(declare-fun var1983479 () (_ BitVec 64))
(declare-fun var1983460 () (_ BitVec 64))
(declare-fun var1926587 () (_ BitVec 64))
(declare-fun var1926584 () (_ BitVec 64))
(declare-fun var91368 () (_ BitVec 64))
(declare-fun var91374 () (_ BitVec 64))
(declare-fun var91375 () (_ BitVec 64))
(declare-fun temp70_4 () (_ BitVec 64))
(declare-fun temp70_6 () (_ BitVec 64))
(declare-fun temp70_5 () (_ BitVec 64))
(assert (= var91327 (bvsub ARGNAME_input_NAMEEND_DIM ARGNAME_other_NAMEEND_DIM)))
(assert (= var267109 var91327))
(assert (= var267122 (bvadd var267109 ARGNAME_other_NAMEEND_DIM)))
(assert (= var267124
   (ite (bvsgt var267122 ARGNAME_input_NAMEEND_DIM)
        #x0000000000000001
        #x0000000000000000)))
(assert (= temp70_1 #x0000000000000000))
(assert (= var267124 temp70_1))
(assert (= var267151 var267109))
(assert (= var396901 var267151))
(assert (= temp70_2 #x0000000000000001))
(assert (= var1664457 temp70_2))
(assert (= var1664485 var1664457))
(assert (= var1664454 var1664485))
(assert (= var1598900 var1664454))
(assert (= var1598897 var1598900))
(assert (= var91342 var1598897))
(assert (= temp70_3 #x0000000000000001))
(assert (= var1983463 temp70_3))
(assert (= var2049021 var1983463))
(assert (= var1983479 var1983463))
(assert (= var1983460 var1983479))
(assert (= var1926587 var1983460))
(assert (= var1926584 var1926587))
(assert (= var91368 var1926584))
(assert (= var91374 var91342))
(assert (= var91375 (ite (= var91374 var91368) #x0000000000000001 #x0000000000000000)))
(assert (= temp70_4 #x0000000000000001))
(assert (= var91375 temp70_4))
(assert (= temp70_6 #x0000000000000002))
(assert (= temp70_5 temp70_6))
(model-add var91327
           ()
           (_ BitVec 64)
           (bvadd ARGNAME_input_NAMEEND_DIM
                  (bvmul #xffffffffffffffff ARGNAME_other_NAMEEND_DIM)))
(model-add var267109
           ()
           (_ BitVec 64)
           (bvadd ARGNAME_input_NAMEEND_DIM
                  (bvmul #xffffffffffffffff ARGNAME_other_NAMEEND_DIM)))
(model-add var267122 () (_ BitVec 64) ARGNAME_input_NAMEEND_DIM)
(model-add temp70_1 () (_ BitVec 64) #x0000000000000000)
(model-add var267124 () (_ BitVec 64) #x0000000000000000)






